NAME : rat195
TYPE : OP
DIMENSION : 195
COST_LIMIT : 1162
ROUTE_NODES : 91
ROUTE_SCORE : 5703
ROUTE_COST : 1161
NODE_SEQUENCE_SECTION
1
2
3
4
5
6
20
21
22
23
24
25
26
38
37
50
51
52
65
64
77
76
89
90
91
104
103
116
115
114
113
126
127
128
129
130
143
142
140
139
138
137
150
151
164
165
166
167
179
178
177
176
189
188
187
186
172
159
160
146
145
132
133
134
135
123
122
121
108
107
94
81
82
83
84
87
86
72
71
58
57
56
43
44
45
33
32
18
17
16
15
-1
DEPOT_SECTION
1
-1
EOF
